50
120
100
99
99
97
95
93
91
91
90
90
88
88
87
86
82
80
79
75
70
69
68
66
66
64
62
62
61
60
60
57
56
55
53
51
47
46
44
42
38
37
36
36
36
36
35
35
32
32
31
31
